Maximize
  - 2.8642610310636 edge_0_1_0_0 - 2.3515970141636 edge_0_2_0_0
   - 0.552879940552 edge_0_3_0_0 - 0.5979847659739199 edge_0_5_0_0
   - 3.47493950368 edge_0_6_0_0 - 0.9026427529575 edge_0_10_0_0
   + 0.1290353190966116 edge_1_2_0_0 - 0.140529251732399 edge_1_3_0_0
   + 0.3395730296556425 edge_1_5_0_0 - 0.2023379201221612 edge_1_6_0_0
   + 0.3087398404715971 edge_1_10_0_0 - 0.6601807421028992 edge_1_11_0_0
   - 1.357560744892087 edge_1_15_0_0 + 0.2523124898934111 edge_2_1_0_0
   - 0.00848678021994444 edge_2_3_0_0 + 0.5490552595852197 edge_2_5_0_0
   - 0.0130426626487103 edge_2_6_0_0 + 0.256206441156242 edge_2_10_0_0
   - 0.8557353232831536 edge_2_15_0_0 + 0.5529418991953847 edge_2_16_0_0
   + 0.9927057891876678 edge_3_1_0_0 + 0.3618880118885938 edge_3_2_0_0
   + 1.164674232888165 edge_3_5_0_0 + 1.439162691358509 edge_3_6_0_0
   - 0.0647635305368765 edge_3_7_0_0 + 0.0873877203816255 edge_3_8_0_0
   + 0.870588459602653 edge_3_10_0_0 - 1.5824173391794439e-04 edge_3_11_0_0
   + 0.0525889679677896 edge_3_13_0_0 + 3.738429731820851 edge_3_16_0_0
   + 0.8281420275289255 edge_5_1_0_0 + 0.9958092797779541 edge_5_2_0_0
   + 1.729619928300663 edge_5_3_0_0 + 2.095401320936037 edge_5_6_0_0
   + 0.3155512961222665 edge_5_7_0_0 + 0.3080506214413893 edge_5_8_0_0
   + 1.038397912009994 edge_5_10_0_0 + 0.0385360389253085 edge_5_11_0_0
   - 0.1964496236228292 edge_5_13_0_0 - 0.5847656467967243 edge_5_15_0_0
   + 4.271257424590711 edge_5_16_0_0 - 1.11780966263503 edge_6_1_0_0
   - 0.6471959877941293 edge_6_3_0_0 - 0.1135727995314437 edge_6_5_0_0
   - 0.0605470174280453 edge_6_7_0_0 - 0.1119463933598799 edge_6_8_0_0
   - 0.1881621326767096 edge_6_10_0_0 - 0.6116487195313188 edge_7_5_0_0
   - 0.2191873021209261 edge_7_6_0_0 - 0.0436059 edge_7_8_0_0
   - 0.2522291495277258 edge_7_11_0_0 - 0.0480285843379189 edge_8_7_0_0
   + 0.2327142220225316 edge_8_10_0_0 - 0.0953453861273463 edge_8_11_0_0
   + 0.4859086269169408 edge_10_1_0_0 + 0.1693202672145554 edge_10_2_0_0
   + 0.3572321889199517 edge_10_3_0_0 + 0.1416005581874305 edge_10_5_0_0
   + 0.6733596253947749 edge_10_6_0_0 + 1.049301722406815 edge_10_7_0_0
   + 0.3271681448528755 edge_10_8_0_0 + 0.5407382764889561 edge_10_11_0_0
   + 0.4674801168028768 edge_10_13_0_0 + 0.1448903128808252 edge_10_15_0_0
   + 3.078656412719937 edge_10_16_0_0 - 0.3375796794379785 edge_11_11_0_0
   + 0.1889680352395971 edge_11_13_0_0 + 0.0936689458251184 edge_11_16_0_0
   - 0.6173528950792659 edge_13_1_0_0 - 0.2175086831346712 edge_13_3_0_0
   - 0.1689741345636203 edge_13_7_0_0 - 0.1560302699144255 edge_13_8_0_0
   + 0.5458985603571908 edge_13_11_0_0 + 0.2626073914919896 edge_13_15_0_0
   + 0.6303366610075913 edge_13_16_0_0 - 1.104807916580133 edge_15_1_0_0
   - 1.424104890952698 edge_15_2_0_0 - 1.429449930055105 edge_15_3_0_0
   + 1.327177269271892 edge_15_11_0_0 + 0.3504927487585661 edge_15_13_0_0
   + 0.8427974933951341 edge_15_16_0_0 - 0.628595033063625 edge_16_13_0_0
   - 1.277770463816923 edge_16_15_0_0
Subject To
 one_parent_1: edge_0_1_0_0 + edge_2_1_0_0 + edge_3_1_0_0 + edge_5_1_0_0
   + edge_6_1_0_0 + edge_10_1_0_0 + edge_13_1_0_0 + edge_15_1_0_0 = 1
 consume_one_flow_unit_1: flow_0_1_0_0 - flow_1_2_0_0 - flow_1_3_0_0
   - flow_1_5_0_0 - flow_1_6_0_0 - flow_1_10_0_0 - flow_1_11_0_0
   - flow_1_15_0_0 + flow_2_1_0_0 + flow_3_1_0_0 + flow_5_1_0_0
   + flow_6_1_0_0 + flow_10_1_0_0 + flow_13_1_0_0 + flow_15_1_0_0 = 1
 one_parent_2: edge_0_2_0_0 + edge_1_2_0_0 + edge_3_2_0_0 + edge_5_2_0_0
   + edge_10_2_0_0 + edge_15_2_0_0 = 1
 consume_one_flow_unit_2: flow_0_2_0_0 + flow_1_2_0_0 - flow_2_1_0_0
   - flow_2_3_0_0 - flow_2_5_0_0 - flow_2_6_0_0 - flow_2_10_0_0
   - flow_2_15_0_0 - flow_2_16_0_0 + flow_3_2_0_0 + flow_5_2_0_0
   + flow_10_2_0_0 + flow_15_2_0_0 = 1
 one_parent_3: edge_0_3_0_0 + edge_1_3_0_0 + edge_2_3_0_0 + edge_5_3_0_0
   + edge_6_3_0_0 + edge_10_3_0_0 + edge_13_3_0_0 + edge_15_3_0_0 = 1
 consume_one_flow_unit_3: flow_0_3_0_0 + flow_1_3_0_0 + flow_2_3_0_0
   - flow_3_1_0_0 - flow_3_2_0_0 - flow_3_5_0_0 - flow_3_6_0_0
   - flow_3_7_0_0 - flow_3_8_0_0 - flow_3_10_0_0 - flow_3_11_0_0
   - flow_3_13_0_0 - flow_3_16_0_0 + flow_5_3_0_0 + flow_6_3_0_0
   + flow_10_3_0_0 + flow_13_3_0_0 + flow_15_3_0_0 = 1
 one_parent_4: = 1
 consume_one_flow_unit_4: = 1
 one_parent_5: edge_0_5_0_0 + edge_1_5_0_0 + edge_2_5_0_0 + edge_3_5_0_0
   + edge_6_5_0_0 + edge_7_5_0_0 + edge_10_5_0_0 = 1
 consume_one_flow_unit_5: flow_0_5_0_0 + flow_1_5_0_0 + flow_2_5_0_0
   + flow_3_5_0_0 - flow_5_1_0_0 - flow_5_2_0_0 - flow_5_3_0_0
   - flow_5_6_0_0 - flow_5_7_0_0 - flow_5_8_0_0 - flow_5_10_0_0
   - flow_5_11_0_0 - flow_5_13_0_0 - flow_5_15_0_0 - flow_5_16_0_0
   + flow_6_5_0_0 + flow_7_5_0_0 + flow_10_5_0_0 = 1
 one_parent_6: edge_0_6_0_0 + edge_1_6_0_0 + edge_2_6_0_0 + edge_3_6_0_0
   + edge_5_6_0_0 + edge_7_6_0_0 + edge_10_6_0_0 = 1
 consume_one_flow_unit_6: flow_0_6_0_0 + flow_1_6_0_0 + flow_2_6_0_0
   + flow_3_6_0_0 + flow_5_6_0_0 - flow_6_1_0_0 - flow_6_3_0_0
   - flow_6_5_0_0 - flow_6_7_0_0 - flow_6_8_0_0 - flow_6_10_0_0
   + flow_7_6_0_0 + flow_10_6_0_0 = 1
 one_parent_7: edge_3_7_0_0 + edge_5_7_0_0 + edge_6_7_0_0 + edge_8_7_0_0
   + edge_10_7_0_0 + edge_13_7_0_0 = 1
 consume_one_flow_unit_7: flow_3_7_0_0 + flow_5_7_0_0 + flow_6_7_0_0
   - flow_7_5_0_0 - flow_7_6_0_0 - flow_7_8_0_0 - flow_7_11_0_0
   + flow_8_7_0_0 + flow_10_7_0_0 + flow_13_7_0_0 = 1
 one_parent_8: edge_3_8_0_0 + edge_5_8_0_0 + edge_6_8_0_0 + edge_7_8_0_0
   + edge_10_8_0_0 + edge_13_8_0_0 = 1
 consume_one_flow_unit_8: flow_3_8_0_0 + flow_5_8_0_0 + flow_6_8_0_0
   + flow_7_8_0_0 - flow_8_7_0_0 - flow_8_10_0_0 - flow_8_11_0_0
   + flow_10_8_0_0 + flow_13_8_0_0 = 1
 one_parent_9: = 1
 consume_one_flow_unit_9: = 1
 one_parent_10: edge_0_10_0_0 + edge_1_10_0_0 + edge_2_10_0_0
   + edge_3_10_0_0 + edge_5_10_0_0 + edge_6_10_0_0 + edge_8_10_0_0 = 1
 consume_one_flow_unit_10: flow_0_10_0_0 + flow_1_10_0_0 + flow_2_10_0_0
   + flow_3_10_0_0 + flow_5_10_0_0 + flow_6_10_0_0 + flow_8_10_0_0
   - flow_10_1_0_0 - flow_10_2_0_0 - flow_10_3_0_0 - flow_10_5_0_0
   - flow_10_6_0_0 - flow_10_7_0_0 - flow_10_8_0_0 - flow_10_11_0_0
   - flow_10_13_0_0 - flow_10_15_0_0 - flow_10_16_0_0 = 1
 one_parent_11: edge_1_11_0_0 + edge_3_11_0_0 + edge_5_11_0_0
   + edge_7_11_0_0 + edge_8_11_0_0 + edge_10_11_0_0 + edge_11_11_0_0
   + edge_13_11_0_0 + edge_15_11_0_0 = 1
 consume_one_flow_unit_11: flow_1_11_0_0 + flow_3_11_0_0 + flow_5_11_0_0
   + flow_7_11_0_0 + flow_8_11_0_0 + flow_10_11_0_0 - flow_11_13_0_0
   - flow_11_16_0_0 + flow_13_11_0_0 + flow_15_11_0_0 = 1
 one_parent_12: = 1
 consume_one_flow_unit_12: = 1
 one_parent_13: edge_3_13_0_0 + edge_5_13_0_0 + edge_10_13_0_0
   + edge_11_13_0_0 + edge_15_13_0_0 + edge_16_13_0_0 = 1
 consume_one_flow_unit_13: flow_3_13_0_0 + flow_5_13_0_0 + flow_10_13_0_0
   + flow_11_13_0_0 - flow_13_1_0_0 - flow_13_3_0_0 - flow_13_7_0_0
   - flow_13_8_0_0 - flow_13_11_0_0 - flow_13_15_0_0 - flow_13_16_0_0
   + flow_15_13_0_0 + flow_16_13_0_0 = 1
 one_parent_14: = 1
 consume_one_flow_unit_14: = 1
 one_parent_15: edge_1_15_0_0 + edge_2_15_0_0 + edge_5_15_0_0
   + edge_10_15_0_0 + edge_13_15_0_0 + edge_16_15_0_0 = 1
 consume_one_flow_unit_15: flow_1_15_0_0 + flow_2_15_0_0 + flow_5_15_0_0
   + flow_10_15_0_0 + flow_13_15_0_0 - flow_15_1_0_0 - flow_15_2_0_0
   - flow_15_3_0_0 - flow_15_11_0_0 - flow_15_13_0_0 - flow_15_16_0_0
   + flow_16_15_0_0 = 1
 one_parent_16: edge_2_16_0_0 + edge_3_16_0_0 + edge_5_16_0_0
   + edge_10_16_0_0 + edge_11_16_0_0 + edge_13_16_0_0 + edge_15_16_0_0 = 1
 consume_one_flow_unit_16: flow_2_16_0_0 + flow_3_16_0_0 + flow_5_16_0_0
   + flow_10_16_0_0 + flow_11_16_0_0 + flow_13_16_0_0 + flow_15_16_0_0
   - flow_16_13_0_0 - flow_16_15_0_0 = 1
 root_flow: flow_0_1_0_0 + flow_0_2_0_0 + flow_0_3_0_0 + flow_0_5_0_0
   + flow_0_6_0_0 + flow_0_10_0_0 = 16
 inactive_no_flow_0_1_0_0: flow_0_1_0_0 - 1000 edge_0_1_0_0 <= 0
 inactive_no_flow_0_2_0_0: flow_0_2_0_0 - 1000 edge_0_2_0_0 <= 0
 inactive_no_flow_0_3_0_0: flow_0_3_0_0 - 1000 edge_0_3_0_0 <= 0
 inactive_no_flow_0_5_0_0: flow_0_5_0_0 - 1000 edge_0_5_0_0 <= 0
 inactive_no_flow_0_6_0_0: flow_0_6_0_0 - 1000 edge_0_6_0_0 <= 0
 inactive_no_flow_0_10_0_0: flow_0_10_0_0 - 1000 edge_0_10_0_0 <= 0
 inactive_no_flow_1_2_0_0: flow_1_2_0_0 - 1000 edge_1_2_0_0 <= 0
 inactive_no_flow_1_3_0_0: flow_1_3_0_0 - 1000 edge_1_3_0_0 <= 0
 inactive_no_flow_1_5_0_0: flow_1_5_0_0 - 1000 edge_1_5_0_0 <= 0
 inactive_no_flow_1_6_0_0: flow_1_6_0_0 - 1000 edge_1_6_0_0 <= 0
 inactive_no_flow_1_10_0_0: flow_1_10_0_0 - 1000 edge_1_10_0_0 <= 0
 inactive_no_flow_1_11_0_0: flow_1_11_0_0 - 1000 edge_1_11_0_0 <= 0
 inactive_no_flow_1_15_0_0: flow_1_15_0_0 - 1000 edge_1_15_0_0 <= 0
 inactive_no_flow_2_1_0_0: flow_2_1_0_0 - 1000 edge_2_1_0_0 <= 0
 inactive_no_flow_2_3_0_0: flow_2_3_0_0 - 1000 edge_2_3_0_0 <= 0
 inactive_no_flow_2_5_0_0: flow_2_5_0_0 - 1000 edge_2_5_0_0 <= 0
 inactive_no_flow_2_6_0_0: flow_2_6_0_0 - 1000 edge_2_6_0_0 <= 0
 inactive_no_flow_2_10_0_0: flow_2_10_0_0 - 1000 edge_2_10_0_0 <= 0
 inactive_no_flow_2_15_0_0: flow_2_15_0_0 - 1000 edge_2_15_0_0 <= 0
 inactive_no_flow_2_16_0_0: flow_2_16_0_0 - 1000 edge_2_16_0_0 <= 0
 inactive_no_flow_3_1_0_0: flow_3_1_0_0 - 1000 edge_3_1_0_0 <= 0
 inactive_no_flow_3_2_0_0: flow_3_2_0_0 - 1000 edge_3_2_0_0 <= 0
 inactive_no_flow_3_5_0_0: flow_3_5_0_0 - 1000 edge_3_5_0_0 <= 0
 inactive_no_flow_3_6_0_0: flow_3_6_0_0 - 1000 edge_3_6_0_0 <= 0
 inactive_no_flow_3_7_0_0: flow_3_7_0_0 - 1000 edge_3_7_0_0 <= 0
 inactive_no_flow_3_8_0_0: flow_3_8_0_0 - 1000 edge_3_8_0_0 <= 0
 inactive_no_flow_3_10_0_0: flow_3_10_0_0 - 1000 edge_3_10_0_0 <= 0
 inactive_no_flow_3_11_0_0: flow_3_11_0_0 - 1000 edge_3_11_0_0 <= 0
 inactive_no_flow_3_13_0_0: flow_3_13_0_0 - 1000 edge_3_13_0_0 <= 0
 inactive_no_flow_3_16_0_0: flow_3_16_0_0 - 1000 edge_3_16_0_0 <= 0
 inactive_no_flow_5_1_0_0: flow_5_1_0_0 - 1000 edge_5_1_0_0 <= 0
 inactive_no_flow_5_2_0_0: flow_5_2_0_0 - 1000 edge_5_2_0_0 <= 0
 inactive_no_flow_5_3_0_0: flow_5_3_0_0 - 1000 edge_5_3_0_0 <= 0
 inactive_no_flow_5_6_0_0: flow_5_6_0_0 - 1000 edge_5_6_0_0 <= 0
 inactive_no_flow_5_7_0_0: flow_5_7_0_0 - 1000 edge_5_7_0_0 <= 0
 inactive_no_flow_5_8_0_0: flow_5_8_0_0 - 1000 edge_5_8_0_0 <= 0
 inactive_no_flow_5_10_0_0: flow_5_10_0_0 - 1000 edge_5_10_0_0 <= 0
 inactive_no_flow_5_11_0_0: flow_5_11_0_0 - 1000 edge_5_11_0_0 <= 0
 inactive_no_flow_5_13_0_0: flow_5_13_0_0 - 1000 edge_5_13_0_0 <= 0
 inactive_no_flow_5_15_0_0: flow_5_15_0_0 - 1000 edge_5_15_0_0 <= 0
 inactive_no_flow_5_16_0_0: flow_5_16_0_0 - 1000 edge_5_16_0_0 <= 0
 inactive_no_flow_6_1_0_0: flow_6_1_0_0 - 1000 edge_6_1_0_0 <= 0
 inactive_no_flow_6_3_0_0: flow_6_3_0_0 - 1000 edge_6_3_0_0 <= 0
 inactive_no_flow_6_5_0_0: flow_6_5_0_0 - 1000 edge_6_5_0_0 <= 0
 inactive_no_flow_6_7_0_0: flow_6_7_0_0 - 1000 edge_6_7_0_0 <= 0
 inactive_no_flow_6_8_0_0: flow_6_8_0_0 - 1000 edge_6_8_0_0 <= 0
 inactive_no_flow_6_10_0_0: flow_6_10_0_0 - 1000 edge_6_10_0_0 <= 0
 inactive_no_flow_7_5_0_0: flow_7_5_0_0 - 1000 edge_7_5_0_0 <= 0
 inactive_no_flow_7_6_0_0: flow_7_6_0_0 - 1000 edge_7_6_0_0 <= 0
 inactive_no_flow_7_8_0_0: flow_7_8_0_0 - 1000 edge_7_8_0_0 <= 0
 inactive_no_flow_7_11_0_0: flow_7_11_0_0 - 1000 edge_7_11_0_0 <= 0
 inactive_no_flow_8_7_0_0: flow_8_7_0_0 - 1000 edge_8_7_0_0 <= 0
 inactive_no_flow_8_10_0_0: flow_8_10_0_0 - 1000 edge_8_10_0_0 <= 0
 inactive_no_flow_8_11_0_0: flow_8_11_0_0 - 1000 edge_8_11_0_0 <= 0
 inactive_no_flow_10_1_0_0: flow_10_1_0_0 - 1000 edge_10_1_0_0 <= 0
 inactive_no_flow_10_2_0_0: flow_10_2_0_0 - 1000 edge_10_2_0_0 <= 0
 inactive_no_flow_10_3_0_0: flow_10_3_0_0 - 1000 edge_10_3_0_0 <= 0
 inactive_no_flow_10_5_0_0: flow_10_5_0_0 - 1000 edge_10_5_0_0 <= 0
 inactive_no_flow_10_6_0_0: flow_10_6_0_0 - 1000 edge_10_6_0_0 <= 0
 inactive_no_flow_10_7_0_0: flow_10_7_0_0 - 1000 edge_10_7_0_0 <= 0
 inactive_no_flow_10_8_0_0: flow_10_8_0_0 - 1000 edge_10_8_0_0 <= 0
 inactive_no_flow_10_11_0_0: flow_10_11_0_0 - 1000 edge_10_11_0_0 <= 0
 inactive_no_flow_10_13_0_0: flow_10_13_0_0 - 1000 edge_10_13_0_0 <= 0
 inactive_no_flow_10_15_0_0: flow_10_15_0_0 - 1000 edge_10_15_0_0 <= 0
 inactive_no_flow_10_16_0_0: flow_10_16_0_0 - 1000 edge_10_16_0_0 <= 0
 inactive_no_flow_11_11_0_0: flow_11_11_0_0 - 1000 edge_11_11_0_0 <= 0
 inactive_no_flow_11_13_0_0: flow_11_13_0_0 - 1000 edge_11_13_0_0 <= 0
 inactive_no_flow_11_16_0_0: flow_11_16_0_0 - 1000 edge_11_16_0_0 <= 0
 inactive_no_flow_13_1_0_0: flow_13_1_0_0 - 1000 edge_13_1_0_0 <= 0
 inactive_no_flow_13_3_0_0: flow_13_3_0_0 - 1000 edge_13_3_0_0 <= 0
 inactive_no_flow_13_7_0_0: flow_13_7_0_0 - 1000 edge_13_7_0_0 <= 0
 inactive_no_flow_13_8_0_0: flow_13_8_0_0 - 1000 edge_13_8_0_0 <= 0
 inactive_no_flow_13_11_0_0: flow_13_11_0_0 - 1000 edge_13_11_0_0 <= 0
 inactive_no_flow_13_15_0_0: flow_13_15_0_0 - 1000 edge_13_15_0_0 <= 0
 inactive_no_flow_13_16_0_0: flow_13_16_0_0 - 1000 edge_13_16_0_0 <= 0
 inactive_no_flow_15_1_0_0: flow_15_1_0_0 - 1000 edge_15_1_0_0 <= 0
 inactive_no_flow_15_2_0_0: flow_15_2_0_0 - 1000 edge_15_2_0_0 <= 0
 inactive_no_flow_15_3_0_0: flow_15_3_0_0 - 1000 edge_15_3_0_0 <= 0
 inactive_no_flow_15_11_0_0: flow_15_11_0_0 - 1000 edge_15_11_0_0 <= 0
 inactive_no_flow_15_13_0_0: flow_15_13_0_0 - 1000 edge_15_13_0_0 <= 0
 inactive_no_flow_15_16_0_0: flow_15_16_0_0 - 1000 edge_15_16_0_0 <= 0
 inactive_no_flow_16_13_0_0: flow_16_13_0_0 - 1000 edge_16_13_0_0 <= 0
 inactive_no_flow_16_15_0_0: flow_16_15_0_0 - 1000 edge_16_15_0_0 <= 0
Bounds
Binaries
 edge_0_1_0_0 edge_0_2_0_0 edge_0_3_0_0 edge_0_5_0_0 edge_0_6_0_0
 edge_0_10_0_0 edge_1_2_0_0 edge_1_3_0_0 edge_1_5_0_0 edge_1_6_0_0
 edge_1_10_0_0 edge_1_11_0_0 edge_1_15_0_0 edge_2_1_0_0 edge_2_3_0_0
 edge_2_5_0_0 edge_2_6_0_0 edge_2_10_0_0 edge_2_15_0_0 edge_2_16_0_0
 edge_3_1_0_0 edge_3_2_0_0 edge_3_5_0_0 edge_3_6_0_0 edge_3_7_0_0
 edge_3_8_0_0 edge_3_10_0_0 edge_3_11_0_0 edge_3_13_0_0 edge_3_16_0_0
 edge_5_1_0_0 edge_5_2_0_0 edge_5_3_0_0 edge_5_6_0_0 edge_5_7_0_0
 edge_5_8_0_0 edge_5_10_0_0 edge_5_11_0_0 edge_5_13_0_0 edge_5_15_0_0
 edge_5_16_0_0 edge_6_1_0_0 edge_6_3_0_0 edge_6_5_0_0 edge_6_7_0_0
 edge_6_8_0_0 edge_6_10_0_0 edge_7_5_0_0 edge_7_6_0_0 edge_7_8_0_0
 edge_7_11_0_0 edge_8_7_0_0 edge_8_10_0_0 edge_8_11_0_0 edge_10_1_0_0
 edge_10_2_0_0 edge_10_3_0_0 edge_10_5_0_0 edge_10_6_0_0 edge_10_7_0_0
 edge_10_8_0_0 edge_10_11_0_0 edge_10_13_0_0 edge_10_15_0_0 edge_10_16_0_0
 edge_11_11_0_0 edge_11_13_0_0 edge_11_16_0_0 edge_13_1_0_0 edge_13_3_0_0
 edge_13_7_0_0 edge_13_8_0_0 edge_13_11_0_0 edge_13_15_0_0 edge_13_16_0_0
 edge_15_1_0_0 edge_15_2_0_0 edge_15_3_0_0 edge_15_11_0_0 edge_15_13_0_0
 edge_15_16_0_0 edge_16_13_0_0 edge_16_15_0_0
End
